nNurses = 87;
nHours = 33;
minHours = 5;
maxHours = 9;
maxConsec = 6;
maxPresence = 18;
demand = [13, 12, 15, 19, 17, 22, 24, 22, 18, 17, 20, 20, 20, 24, 24, 20, 19, 23, 24, 24, 21, 19, 19, 21, 21, 20, 17, 14, 11, 13, 12, 15, 19];
